p edge 14 44
e 1 14
e 1 4
e 2 3
e 2 4
e 2 13
e 3 9
e 3 4
e 3 2
e 4 3
e 4 2
e 4 1
e 5 9
e 5 12
e 5 14
e 6 7
e 6 8
e 6 10
e 6 11
e 7 8
e 7 6
e 8 7
e 8 6
e 9 12
e 9 14
e 9 5
e 9 3
e 10 12
e 10 11
e 10 6
e 11 13
e 11 10
e 11 6
e 12 13
e 12 14
e 12 10
e 12 9
e 12 5
e 13 12
e 13 11
e 13 2
e 14 12
e 14 9
e 14 5
e 14 1
